21° run output:
{
    "Function": "ClusterB500.tsp",
    "Problem dimension": [
        51,
        148,
        192,
        150,
        57,
        193,
        436,
        12,
        448,
        373,
        110,
        223,
        469,
        269,
        248,
        340,
        449,
        221,
        415,
        414,
        445,
        362,
        130,
        378,
        209,
        188,
        8,
        120,
        251,
        429,
        263,
        85,
        97,
        334,
        15,
        102,
        338,
        359,
        439,
        477,
        157,
        462,
        324,
        358,
        3,
        463,
        470,
        344,
        136,
        271,
        55,
        77,
        461,
        13,
        94,
        48,
        247,
        442,
        284,
        459,
        190,
        66,
        39,
        90,
        158,
        399,
        125,
        83,
        417,
        277,
        142,
        370,
        119,
        103,
        173,
        131,
        479,
        299,
        383,
        280,
        301,
        369,
        428,
        155,
        19,
        58,
        411,
        21,
        481,
        453,
        441,
        424,
        205,
        305,
        335,
        107,
        253,
        236,
        146,
        133,
        195,
        494,
        464,
        172,
        407,
        4,
        115,
        10,
        487,
        203,
        243,
        492,
        438,
        273,
        480,
        357,
        26,
        112,
        307,
        376,
        214,
        27,
        262,
        426,
        355,
        440,
        290,
        184,
        114,
        178,
        245,
        337,
        265,
        339,
        420,
        402,
        328,
        472,
        72,
        300,
        151,
        194,
        254,
        237,
        258,
        170,
        425,
        210,
        216,
        457,
        400,
        458,
        432,
        486,
        410,
        354,
        264,
        320,
        451,
        169,
        403,
        135,
        360,
        118,
        38,
        476,
        289,
        308,
        117,
        347,
        364,
        121,
        75,
        452,
        475,
        353,
        386,
        160,
        238,
        168,
        349,
        23,
        323,
        239,
        398,
        49,
        418,
        201,
        22,
        450,
        478,
        286,
        229,
        179,
        116,
        233,
        421,
        343,
        126,
        454,
        274,
        342,
        65,
        482,
        319,
        163,
        374,
        123,
        275,
        207,
        491,
        171,
        2,
        45,
        137,
        227,
        79,
        63,
        375,
        152,
        310,
        332,
        41,
        106,
        69,
        182,
        225,
        100,
        81,
        348,
        287,
        0,
        124,
        186,
        76,
        279,
        99,
        219,
        460,
        212,
        419,
        272,
        191,
        25,
        327,
        213,
        129,
        17,
        80,
        44,
        379,
        42,
        59,
        485,
        18,
        276,
        493,
        89,
        52,
        282,
        62,
        98,
        249,
        366,
        145,
        34,
        153,
        405,
        111,
        388,
        175,
        92,
        446,
        240,
        206,
        434,
        435,
        392,
        217,
        397,
        298,
        431,
        189,
        43,
        350,
        91,
        37,
        266,
        187,
        389,
        31,
        288,
        132,
        291,
        295,
        242,
        36,
        495,
        246,
        345,
        437,
        467,
        474,
        293,
        255,
        244,
        490,
        257,
        278,
        395,
        313,
        468,
        260,
        14,
        30,
        261,
        196,
        356,
        144,
        488,
        306,
        1,
        381,
        202,
        228,
        315,
        312,
        96,
        250,
        321,
        82,
        365,
        127,
        73,
        408,
        471,
        204,
        101,
        296,
        224,
        174,
        53,
        181,
        156,
        256,
        372,
        67,
        430,
        413,
        314,
        140,
        309,
        16,
        270,
        180,
        352,
        390,
        380,
        317,
        71,
        159,
        318,
        371,
        496,
        292,
        346,
        368,
        183,
        56,
        297,
        166,
        167,
        177,
        74,
        367,
        134,
        95,
        473,
        235,
        35,
        47,
        215,
        416,
        252,
        363,
        455,
        64,
        456,
        303,
        333,
        185,
        444,
        161,
        154,
        401,
        382,
        241,
        24,
        361,
        497,
        88,
        164,
        109,
        311,
        322,
        443,
        5,
        176,
        199,
        466,
        6,
        268,
        32,
        329,
        220,
        93,
        391,
        283,
        396,
        9,
        499,
        61,
        351,
        423,
        427,
        147,
        197,
        138,
        406,
        326,
        128,
        330,
        341,
        465,
        218,
        104,
        40,
        377,
        143,
        259,
        281,
        234,
        198,
        108,
        11,
        394,
        105,
        149,
        200,
        385,
        87,
        304,
        84,
        325,
        54,
        412,
        498,
        60,
        231,
        33,
        387,
        20,
        28,
        139,
        230,
        447,
        50,
        208,
        232,
        294,
        86,
        226,
        409,
        484,
        46,
        162,
        285,
        165,
        222,
        483,
        393,
        113,
        68,
        141,
        331,
        78,
        489,
        422,
        122,
        316,
        384,
        302,
        7,
        336,
        211,
        433,
        267,
        404,
        29,
        70
    ],
    "Global Optimum": 0,
    "Algorithm": "Genetic algorithm",
    "Parameters": {
        "population": 30,
        "offspring": 30,
        "mutation probability": 0.002,
        "crossover probability": 0.9
    },
    "Fitness": 626112,
    "Solution": [
        51,
        148,
        192,
        150,
        57,
        193,
        436,
        12,
        448,
        373,
        110,
        223,
        469,
        269,
        248,
        340,
        449,
        221,
        415,
        414,
        445,
        362,
        130,
        378,
        209,
        188,
        8,
        120,
        251,
        429,
        263,
        85,
        97,
        334,
        15,
        102,
        338,
        359,
        439,
        477,
        157,
        462,
        324,
        358,
        3,
        463,
        470,
        344,
        136,
        271,
        55,
        77,
        461,
        13,
        94,
        48,
        247,
        442,
        284,
        459,
        190,
        66,
        39,
        90,
        158,
        399,
        125,
        83,
        417,
        277,
        142,
        370,
        119,
        103,
        173,
        131,
        479,
        299,
        383,
        280,
        301,
        369,
        428,
        155,
        19,
        58,
        411,
        21,
        481,
        453,
        441,
        424,
        205,
        305,
        335,
        107,
        253,
        236,
        146,
        133,
        195,
        494,
        464,
        172,
        407,
        4,
        115,
        10,
        487,
        203,
        243,
        492,
        438,
        273,
        480,
        357,
        26,
        112,
        307,
        376,
        214,
        27,
        262,
        426,
        355,
        440,
        290,
        184,
        114,
        178,
        245,
        337,
        265,
        339,
        420,
        402,
        328,
        472,
        72,
        300,
        151,
        194,
        254,
        237,
        258,
        170,
        425,
        210,
        216,
        457,
        400,
        458,
        432,
        486,
        410,
        354,
        264,
        320,
        451,
        169,
        403,
        135,
        360,
        118,
        38,
        476,
        289,
        308,
        117,
        347,
        364,
        121,
        75,
        452,
        475,
        353,
        386,
        160,
        238,
        168,
        349,
        23,
        323,
        239,
        398,
        49,
        418,
        201,
        22,
        450,
        478,
        286,
        229,
        179,
        116,
        233,
        421,
        343,
        126,
        454,
        274,
        342,
        65,
        482,
        319,
        163,
        374,
        123,
        275,
        207,
        491,
        171,
        2,
        45,
        137,
        227,
        79,
        63,
        375,
        152,
        310,
        332,
        41,
        106,
        69,
        182,
        225,
        100,
        81,
        348,
        287,
        0,
        124,
        186,
        76,
        279,
        99,
        219,
        460,
        212,
        419,
        272,
        191,
        25,
        327,
        213,
        129,
        17,
        80,
        44,
        379,
        42,
        59,
        485,
        18,
        276,
        493,
        89,
        52,
        282,
        62,
        98,
        249,
        366,
        145,
        34,
        153,
        405,
        111,
        388,
        175,
        92,
        446,
        240,
        206,
        434,
        435,
        392,
        217,
        397,
        298,
        431,
        189,
        43,
        350,
        91,
        37,
        266,
        187,
        389,
        31,
        288,
        132,
        291,
        295,
        242,
        36,
        495,
        246,
        345,
        437,
        467,
        474,
        293,
        255,
        244,
        490,
        257,
        278,
        395,
        313,
        468,
        260,
        14,
        30,
        261,
        196,
        356,
        144,
        488,
        306,
        1,
        381,
        202,
        228,
        315,
        312,
        96,
        250,
        321,
        82,
        365,
        127,
        73,
        408,
        471,
        204,
        101,
        296,
        224,
        174,
        53,
        181,
        156,
        256,
        372,
        67,
        430,
        413,
        314,
        140,
        309,
        16,
        270,
        180,
        352,
        390,
        380,
        317,
        71,
        159,
        318,
        371,
        496,
        292,
        346,
        368,
        183,
        56,
        297,
        166,
        167,
        177,
        74,
        367,
        134,
        95,
        473,
        235,
        35,
        47,
        215,
        416,
        252,
        363,
        455,
        64,
        456,
        303,
        333,
        185,
        444,
        161,
        154,
        401,
        382,
        241,
        24,
        361,
        497,
        88,
        164,
        109,
        311,
        322,
        443,
        5,
        176,
        199,
        466,
        6,
        268,
        32,
        329,
        220,
        93,
        391,
        283,
        396,
        9,
        499,
        61,
        351,
        423,
        427,
        147,
        197,
        138,
        406,
        326,
        128,
        330,
        341,
        465,
        218,
        104,
        40,
        377,
        143,
        259,
        281,
        234,
        198,
        108,
        11,
        394,
        105,
        149,
        200,
        385,
        87,
        304,
        84,
        325,
        54,
        412,
        498,
        60,
        231,
        33,
        387,
        20,
        28,
        139,
        230,
        447,
        50,
        208,
        232,
        294,
        86,
        226,
        409,
        484,
        46,
        162,
        285,
        165,
        222,
        483,
        393,
        113,
        68,
        141,
        331,
        78,
        489,
        422,
        122,
        316,
        384,
        302,
        7,
        336,
        211,
        433,
        267,
        404,
        29,
        70
    ],
    "Nb of functions evaluations": 200010,
    "Computational time in seconds": 964.0227541923523,
    "Stopping criterion in evaluations": 200000
}